%NProcShared=4
%Mem=1GB
%Chk=B.chk

# B3LYP/aug-cc-pVTZ EmpiricalDispersion=GD3 Pop=Full

Boron

0 2
 B      0.00000000      0.00000000      0.00000000


