%NProcShared=4
%Mem=1GB
%Chk=C.chk

# B3LYP/aug-cc-pVTZ EmpiricalDispersion=GD3 Pop=Full

Carbon

0 3
 C      0.00000000      0.00000000      0.00000000


