%NProcShared=4
%Mem=1GB
%Chk=F.chk

# B3LYP/aug-cc-pVTZ EmpiricalDispersion=GD3 Pop=Full

Fluorine

0 2
 F      0.00000000      0.00000000      0.00000000


