%NProcShared=4
%Mem=1GB
%Chk=H.chk

# B3LYP/aug-cc-pVTZ EmpiricalDispersion=GD3 Pop=Full

Hydrogen

0 2
 H      0.00000000      0.00000000      0.00000000


