%NProcShared=4
%Mem=1GB
%Chk=Li.chk

# B3LYP/aug-cc-pVTZ EmpiricalDispersion=GD3 Pop=Full

Lithium

0 2
 Li     0.00000000      0.00000000      0.00000000


