%NProcShared=4
%Mem=1GB
%Chk=Mg.chk

# B3LYP/aug-cc-pVTZ EmpiricalDispersion=GD3 Pop=Full

Magnesium

0 1
 Mg     0.00000000      0.00000000      0.00000000


