%NProcShared=4
%Mem=1GB
%Chk=N.chk

# B3LYP/aug-cc-pVTZ EmpiricalDispersion=GD3 Pop=Full

Nitrogen

0 4
 N      0.00000000      0.00000000      0.00000000


