%NProcShared=4
%Mem=1GB
%Chk=Ne.chk

# B3LYP/aug-cc-pVTZ EmpiricalDispersion=GD3 Pop=Full

Neon

0 1
 Ne     0.00000000      0.00000000      0.00000000


