%NProcShared=4
%Mem=1GB
%Chk=O.chk

# B3LYP/aug-cc-pVTZ EmpiricalDispersion=GD3 Pop=Full

Oxygen

0 3
 O      0.00000000      0.00000000      0.00000000


