%NProcShared=4
%Mem=1GB
%Chk=P.chk

# B3LYP/aug-cc-pVTZ EmpiricalDispersion=GD3 Pop=Full

Phosphorus

0 4
 P      0.00000000      0.00000000      0.00000000


