%NProcShared=4
%Mem=1GB
%Chk=S.chk

# B3LYP/aug-cc-pVTZ EmpiricalDispersion=GD3 Pop=Full

Sulphur

0 3
 S      0.00000000      0.00000000      0.00000000


