%NProcShared=4
%Mem=1GB
%Chk=Si.chk

# B3LYP/aug-cc-pVTZ EmpiricalDispersion=GD3 Pop=Full

Sillicon

0 3
 Si     0.00000000      0.00000000      0.00000000


