%NProcShared=4
%Mem=1GB
%Chk=Al.chk

# B3LYP/CEP-31G EmpiricalDispersion=GD3 Pop=Full

Aluminum

0 2
 Al     0.00000000      0.00000000      0.00000000


