%NProcShared=4
%Mem=1GB
%Chk=Ar.chk

# B3LYP/CEP-31G EmpiricalDispersion=GD3 Pop=Full

Argon

0 1
 Ar     0.00000000      0.00000000      0.00000000


