%NProcShared=4
%Mem=1GB
%Chk=Be.chk

# B3LYP/CEP-31G EmpiricalDispersion=GD3 Pop=Full

Beryllium

0 1
 Be     0.00000000      0.00000000      0.00000000


