%NProcShared=4
%Mem=1GB
%Chk=Cl.chk

# B3LYP/CEP-31G EmpiricalDispersion=GD3 Pop=Full

Chlorine

0 2
 Cl     0.00000000      0.00000000      0.00000000


