%NProcShared=4
%Mem=1GB
%Chk=F.chk

# B3LYP/CEP-31G EmpiricalDispersion=GD3 Pop=Full

Fluorine

0 2
 F      0.00000000      0.00000000      0.00000000


