%NProcShared=4
%Mem=1GB
%Chk=He.chk

# B3LYP/aug-cc-pVTZ EmpiricalDispersion=GD3 Pop=Full

Helium

0 1
 He     0.00000000      0.00000000      0.00000000


