%NProcShared=4
%Mem=1GB
%Chk=Na.chk

# B3LYP/CEP-31G EmpiricalDispersion=GD3 Pop=Full

Sodium

0 2
 Na     0.00000000      0.00000000      0.00000000


