%NProcShared=4 
%Mem=4GB  
%Chk=H2O_H2O_1735.chk 

#p CCSD(T)/CEP-31G 

H2O_H2O_1735

0 1
O             -0.000000         -0.009833          0.000000
H             -0.799571         -0.580965          0.000000
H              0.799571         -0.580965          0.000000
O             -2.786565         -1.993962          0.000000
H             -3.768591         -1.960323          0.000000
H             -2.499906         -2.933820          0.000000

