%NProcShared=4 
%Mem=4GB  
%Chk=H2O_H2O_2490.chk 

#p CCSD(T)/CEP-31G 

H2O_H2O_2490

0 1
O             -0.000000         -0.009833          0.000000
H             -0.799571         -0.580965          0.000000
H              0.799571         -0.580965          0.000000
O             -3.275622         -2.339392          0.000000
H             -4.194719         -1.991877          0.000000
H             -3.306283         -3.321515          0.000000

