%NProcShared=4 
%Mem=4GB  
%Chk=H2O_H2O_4275.chk 

#p CCSD(T)/CEP-31G 

H2O_H2O_4275

0 1
O             -0.000000         -0.009833          0.000000
H             -0.799571         -0.580965          0.000000
H              0.799571         -0.580965          0.000000
O             -4.435927         -3.178405          0.000000
H             -5.235498         -3.749537          0.000000
H             -3.636355         -3.749537          0.000000

