%NProcShared=4 
%Mem=4GB  
%Chk=H2O_H2O_2596.chk 

#p CCSD(T)/CEP-31G 

H2O_H2O_2596

0 1
O             -0.000000         -0.009833          0.000000
H             -0.799571         -0.580965          0.000000
H              0.799571         -0.580965          0.000000
O             -3.342006         -2.382216          0.000000
H             -4.058152         -1.709431          0.000000
H             -3.746175         -3.277847          0.000000

