%NProcShared=4 
%Mem=4GB  
%Chk=H2O_H2O_1168.chk 

#p CCSD(T)/CEP-31G 

H2O_H2O_1168

0 1
O             -0.000000         -0.009833          0.000000
H             -0.799571         -0.580965          0.000000
H              0.799571         -0.580965          0.000000
O             -2.416399         -1.723302          0.000000
H             -3.250039         -1.203157          0.000000
H             -2.638073         -2.680572          0.000000

