%NProcShared=4 
%Mem=4GB  
%Chk=H2O_H2O_2910.chk 

#p CCSD(T)/CEP-31G 

H2O_H2O_2910

0 1
O             -0.000000         -0.009833          0.000000
H             -0.799571         -0.580965          0.000000
H              0.799571         -0.580965          0.000000
O             -3.549323         -2.538799          0.000000
H             -4.531349         -2.505160          0.000000
H             -3.262664         -3.478656          0.000000

