%NProcShared=4 
%Mem=4GB  
%Chk=H2O_H2O_2635.chk 

#p CCSD(T)/CEP-31G 

H2O_H2O_2635

0 1
O             -0.000000         -0.009833          0.000000
H             -0.799571         -0.580965          0.000000
H              0.799571         -0.580965          0.000000
O             -3.370805         -2.411284          0.000000
H             -4.352831         -2.377645          0.000000
H             -3.084146         -3.351142          0.000000

