%NProcShared=4 
%Mem=4GB  
%Chk=H2O_H2O_3345.chk 

#p CCSD(T)/CEP-31G 

H2O_H2O_3345

0 1
O             -0.000000         -0.009833          0.000000
H             -0.799571         -0.580965          0.000000
H              0.799571         -0.580965          0.000000
O             -3.828726         -2.730611          0.000000
H             -4.587342         -2.106104          0.000000
H             -4.173453         -3.650758          0.000000

