%NProcShared=4 
%Mem=4GB  
%Chk=H2O_H2O_1365.chk 

#p CCSD(T)/CEP-31G 

H2O_H2O_1365

0 1
O             -0.000000         -0.009833          0.000000
H             -0.799571         -0.580965          0.000000
H              0.799571         -0.580965          0.000000
O             -2.545321         -1.817740          0.000000
H             -3.464418         -1.470225          0.000000
H             -2.575982         -2.799863          0.000000

