%NProcShared=4 
%Mem=4GB  
%Chk=H2O_H2O_3890.chk 

#p CCSD(T)/CEP-31G 

H2O_H2O_3890

0 1
O             -0.000000         -0.009833          0.000000
H             -0.799571         -0.580965          0.000000
H              0.799571         -0.580965          0.000000
O             -4.184440         -2.988559          0.000000
H             -5.103537         -2.641044          0.000000
H             -4.215101         -3.970682          0.000000

