%NProcShared=4 
%Mem=4GB  
%Chk=H2O_H2O_3070.chk 

#p CCSD(T)/CEP-31G 

H2O_H2O_3070

0 1
O             -0.000000         -0.009833          0.000000
H             -0.799571         -0.580965          0.000000
H              0.799571         -0.580965          0.000000
O             -3.650209         -2.603096          0.000000
H             -4.408824         -1.978589          0.000000
H             -3.994935         -3.523243          0.000000

