%NProcShared=4 
%Mem=4GB  
%Chk=H2O_H2O_4751.chk 

#p CCSD(T)/CEP-31G 

H2O_H2O_4751

0 1
O             -0.000000         -0.009833          0.000000
H             -0.799571         -0.580965          0.000000
H              0.799571         -0.580965          0.000000
O             -4.744919         -3.398637          0.000000
H             -5.580132         -3.916252          0.000000
H             -3.984413         -4.020841          0.000000

