%NProcShared=4 
%Mem=4GB  
%Chk=H2O_H2O_3731.chk 

#p CCSD(T)/CEP-31G 

H2O_H2O_3731

0 1
O             -0.000000         -0.009833          0.000000
H             -0.799571         -0.580965          0.000000
H              0.799571         -0.580965          0.000000
O             -4.082654         -2.922627          0.000000
H             -5.039924         -3.144301          0.000000
H             -3.562509         -3.756267          0.000000

