%NProcShared=4 
%Mem=4GB  
%Chk=H2O_H2O_2557.chk 

#p CCSD(T)/CEP-31G 

H2O_H2O_2557

0 1
O             -0.000000         -0.009833          0.000000
H             -0.799571         -0.580965          0.000000
H              0.799571         -0.580965          0.000000
O             -3.320482         -2.377525          0.000000
H             -4.290201         -2.536116          0.000000
H             -2.855973         -3.243399          0.000000

