%NProcShared=4 
%Mem=4GB  
%Chk=H2O_H2O_1094.chk 

#p CCSD(T)/CEP-31G 

H2O_H2O_1094

0 1
O             -0.000000         -0.009833          0.000000
H             -0.799571         -0.580965          0.000000
H              0.799571         -0.580965          0.000000
O             -2.367939         -1.687923          0.000000
H             -3.165775         -1.114369          0.000000
H             -2.651747         -2.628646          0.000000

