%NProcShared=4 
%Mem=4GB  
%Chk=H2O_H2O_496.chk 

#p CCSD(T)/CEP-31G 

H2O_H2O_496

0 1
O             -0.000000         -0.009833          0.000000
H             -0.799571         -0.580965          0.000000
H              0.799571         -0.580965          0.000000
O             -1.978778         -1.408466          0.000000
H             -2.694925         -0.735681          0.000000
H             -2.382947         -2.304096          0.000000

