%NProcShared=4 
%Mem=4GB  
%Chk=H2O_H2O_1347.chk 

#p CCSD(T)/CEP-31G 

H2O_H2O_1347

0 1
O             -0.000000         -0.009833          0.000000
H             -0.799571         -0.580965          0.000000
H              0.799571         -0.580965          0.000000
O             -2.530665         -1.801968          0.000000
H             -3.201276         -1.083785          0.000000
H             -2.992546         -2.669247          0.000000

