%NProcShared=4 
%Mem=4GB  
%Chk=H2O_H2O_1078.chk 

#p CCSD(T)/CEP-31G 

H2O_H2O_1078

0 1
O             -0.000000         -0.009833          0.000000
H             -0.799571         -0.580965          0.000000
H              0.799571         -0.580965          0.000000
O             -2.360546         -1.694406          0.000000
H             -3.256176         -2.098576          0.000000
H             -1.687760         -2.410553          0.000000

