%NProcShared=4 
%Mem=4GB  
%Chk=H2O_H2O_663.chk 

#p CCSD(T)/CEP-31G 

H2O_H2O_663

0 1
O             -0.000000         -0.009833          0.000000
H             -0.799571         -0.580965          0.000000
H              0.799571         -0.580965          0.000000
O             -2.090129         -1.494177          0.000000
H             -3.046723         -1.269601          0.000000
H             -1.992335         -2.471900          0.000000

