%NProcShared=4 
%Mem=4GB  
%Chk=H2O_H2O_3502.chk 

#p CCSD(T)/CEP-31G 

H2O_H2O_3502

0 1
O             -0.000000         -0.009833          0.000000
H             -0.799571         -0.580965          0.000000
H              0.799571         -0.580965          0.000000
O             -3.934114         -2.818961          0.000000
H             -4.801393         -3.280842          0.000000
H             -3.215931         -3.489572          0.000000

