%NProcShared=4 
%Mem=4GB  
%Chk=H2O_H2O_3716.chk 

#p CCSD(T)/CEP-31G 

H2O_H2O_3716

0 1
O             -0.000000         -0.009833          0.000000
H             -0.799571         -0.580965          0.000000
H              0.799571         -0.580965          0.000000
O             -4.071178         -2.906866          0.000000
H             -4.965578         -2.499983          0.000000
H             -4.166007         -3.884882          0.000000

