%NProcShared=4 
%Mem=4GB  
%Chk=H2O_H2O_1566.chk 

#p CCSD(T)/CEP-31G 

H2O_H2O_1566

0 1
O             -0.000000         -0.009833          0.000000
H             -0.799571         -0.580965          0.000000
H              0.799571         -0.580965          0.000000
O             -2.675492         -1.909932          0.000000
H             -3.569893         -1.503049          0.000000
H             -2.770322         -2.887947          0.000000

