%NProcShared=4 
%Mem=4GB  
%Chk=H2O_H2O_1283.chk 

#p CCSD(T)/CEP-31G 

H2O_H2O_1283

0 1
O             -0.000000         -0.009833          0.000000
H             -0.799571         -0.580965          0.000000
H              0.799571         -0.580965          0.000000
O             -2.493375         -1.786016          0.000000
H             -3.471390         -1.880845          0.000000
H             -2.086492         -2.680417          0.000000

