%NProcShared=4 
%Mem=4GB  
%Chk=H2O_H2O_1845.chk 

#p CCSD(T)/CEP-31G 

H2O_H2O_1845

0 1
O             -0.000000         -0.009833          0.000000
H             -0.799571         -0.580965          0.000000
H              0.799571         -0.580965          0.000000
O             -2.854993         -2.035075          0.000000
H             -3.613608         -1.410568          0.000000
H             -3.199719         -2.955222          0.000000

