%NProcShared=4 
%Mem=4GB  
%Chk=H2O_H2O_809.chk 

#p CCSD(T)/CEP-31G 

H2O_H2O_809

0 1
O             -0.000000         -0.009833          0.000000
H             -0.799571         -0.580965          0.000000
H              0.799571         -0.580965          0.000000
O             -2.185573         -1.565423          0.000000
H             -3.167696         -1.596084          0.000000
H             -1.838057         -2.484520          0.000000

