%NProcShared=4 
%Mem=4GB  
%Chk=H2O_H2O_2881.chk 

#p CCSD(T)/CEP-31G 

H2O_H2O_2881

0 1
O             -0.000000         -0.009833          0.000000
H             -0.799571         -0.580965          0.000000
H              0.799571         -0.580965          0.000000
O             -3.530871         -2.528490          0.000000
H             -4.488142         -2.750164          0.000000
H             -3.010726         -3.362130          0.000000

