%NProcShared=4 
%Mem=4GB  
%Chk=H2O_H2O_228.chk 

#p CCSD(T)/CEP-31G 

H2O_H2O_228

0 1
O             -0.000000         -0.009833          0.000000
H             -0.799571         -0.580965          0.000000
H              0.799571         -0.580965          0.000000
O             -1.808763         -1.300269          0.000000
H             -2.704394         -1.704439          0.000000
H             -1.135978         -2.016416          0.000000

