%NProcShared=4 
%Mem=4GB  
%Chk=H2O_H2O_2425.chk 

#p CCSD(T)/CEP-31G 

H2O_H2O_2425

0 1
O             -0.000000         -0.009833          0.000000
H             -0.799571         -0.580965          0.000000
H              0.799571         -0.580965          0.000000
O             -3.234988         -2.320578          0.000000
H             -4.034560         -2.891710          0.000000
H             -2.435417         -2.891710          0.000000

