%NProcShared=4 
%Mem=4GB  
%Chk=H2O_H2O_639.chk 

#p CCSD(T)/CEP-31G 

H2O_H2O_639

0 1
O             -0.000000         -0.009833          0.000000
H             -0.799571         -0.580965          0.000000
H              0.799571         -0.580965          0.000000
O             -2.074309         -1.482088          0.000000
H             -3.014166         -1.195428          0.000000
H             -2.040670         -2.464113          0.000000

