%NProcShared=4 
%Mem=4GB  
%Chk=H2O_H2O_3642.chk 

#p CCSD(T)/CEP-31G 

H2O_H2O_3642

0 1
O             -0.000000         -0.009833          0.000000
H             -0.799571         -0.580965          0.000000
H              0.799571         -0.580965          0.000000
O             -4.022794         -2.871522          0.000000
H             -4.888668         -2.407014          0.000000
H             -4.181386         -3.841241          0.000000

