%NProcShared=4 
%Mem=4GB  
%Chk=H2O_H2O_129.chk 

#p CCSD(T)/CEP-31G 

H2O_H2O_129

0 1
O             -0.000000         -0.009833          0.000000
H             -0.799571         -0.580965          0.000000
H              0.799571         -0.580965          0.000000
O             -1.744474         -1.253754          0.000000
H             -2.664621         -1.598481          0.000000
H             -1.119968         -2.012370          0.000000

