%NProcShared=4 
%Mem=4GB  
%Chk=H2O_H2O_3479.chk 

#p CCSD(T)/CEP-31G 

H2O_H2O_3479

0 1
O             -0.000000         -0.009833          0.000000
H             -0.799571         -0.580965          0.000000
H              0.799571         -0.580965          0.000000
O             -3.919147         -2.807118          0.000000
H             -4.839293         -3.151845          0.000000
H             -3.294640         -3.565733          0.000000

