%NProcShared=4 
%Mem=4GB  
%Chk=H2O_H2O_4390.chk 

#p CCSD(T)/CEP-31G 

H2O_H2O_4390

0 1
O             -0.000000         -0.009833          0.000000
H             -0.799571         -0.580965          0.000000
H              0.799571         -0.580965          0.000000
O             -4.509018         -3.220404          0.000000
H             -5.428115         -2.872889          0.000000
H             -4.539679         -4.202527          0.000000

