%NProcShared=4 
%Mem=4GB  
%Chk=H2O_H2O_2358.chk 

#p CCSD(T)/CEP-31G 

H2O_H2O_2358

0 1
O             -0.000000         -0.009833          0.000000
H             -0.799571         -0.580965          0.000000
H              0.799571         -0.580965          0.000000
O             -3.191218         -2.284484          0.000000
H             -4.169233         -2.379313          0.000000
H             -2.784335         -3.178884          0.000000

