%NProcShared=4 
%Mem=4GB  
%Chk=H2O_H2O_4971.chk 

#p CCSD(T)/CEP-31G 

H2O_H2O_4971

0 1
O             -0.000000         -0.009833          0.000000
H             -0.799571         -0.580965          0.000000
H              0.799571         -0.580965          0.000000
O             -4.883751         -3.483482          0.000000
H             -5.599897         -2.810696          0.000000
H             -5.287920         -4.379112          0.000000

