%NProcShared=4 
%Mem=4GB  
%Chk=H2O_H2O_4358.chk 

#p CCSD(T)/CEP-31G 

H2O_H2O_4358

0 1
O             -0.000000         -0.009833          0.000000
H             -0.799571         -0.580965          0.000000
H              0.799571         -0.580965          0.000000
O             -4.489530         -3.211865          0.000000
H             -5.467545         -3.306694          0.000000
H             -4.082646         -4.106265          0.000000

