%NProcShared=4 
%Mem=4GB  
%Chk=H2O_H2O_101.chk 

#p CCSD(T)/CEP-31G 

H2O_H2O_101

0 1
O             -0.000000         -0.009833          0.000000
H             -0.799571         -0.580965          0.000000
H              0.799571         -0.580965          0.000000
O             -1.726344         -1.242476          0.000000
H             -2.561557         -1.760091          0.000000
H             -0.965838         -1.864680          0.000000

