%NProcShared=4 
%Mem=4GB  
%Chk=H2O_H2O_1979.chk 

#p CCSD(T)/CEP-31G 

H2O_H2O_1979

0 1
O             -0.000000         -0.009833          0.000000
H             -0.799571         -0.580965          0.000000
H              0.799571         -0.580965          0.000000
O             -2.945413         -2.111582          0.000000
H             -3.865559         -2.456309          0.000000
H             -2.320906         -2.870197          0.000000

