%NProcShared=4 
%Mem=4GB  
%Chk=H2O_H2O_4500.chk 

#p CCSD(T)/CEP-31G 

H2O_H2O_4500

0 1
O             -0.000000         -0.009833          0.000000
H             -0.799571         -0.580965          0.000000
H              0.799571         -0.580965          0.000000
O             -4.581987         -3.282736          0.000000
H             -5.381558         -3.853868          0.000000
H             -3.782415         -3.853868          0.000000

