%NProcShared=4 
%Mem=4GB  
%Chk=H2O_H2O_1295.chk 

#p CCSD(T)/CEP-31G 

H2O_H2O_1295

0 1
O             -0.000000         -0.009833          0.000000
H             -0.799571         -0.580965          0.000000
H              0.799571         -0.580965          0.000000
O             -2.497957         -1.780045          0.000000
H             -3.256572         -1.155539          0.000000
H             -2.842684         -2.700192          0.000000

