%NProcShared=4 
%Mem=4GB  
%Chk=H2O_H2O_3751.chk 

#p CCSD(T)/CEP-31G 

H2O_H2O_3751

0 1
O             -0.000000         -0.009833          0.000000
H             -0.799571         -0.580965          0.000000
H              0.799571         -0.580965          0.000000
O             -4.095763         -2.934947          0.000000
H             -4.930976         -3.452561          0.000000
H             -3.335257         -3.557150          0.000000

