%NProcShared=4 
%Mem=4GB  
%Chk=H2O_H2O_1152.chk 

#p CCSD(T)/CEP-31G 

H2O_H2O_1152

0 1
O             -0.000000         -0.009833          0.000000
H             -0.799571         -0.580965          0.000000
H              0.799571         -0.580965          0.000000
O             -2.408598         -1.729288          0.000000
H             -3.275876         -2.191169          0.000000
H             -1.690415         -2.399899          0.000000

