%NProcShared=4 
%Mem=4GB  
%Chk=H2O_H2O_695.chk 

#p CCSD(T)/CEP-31G 

H2O_H2O_695

0 1
O             -0.000000         -0.009833          0.000000
H             -0.799571         -0.580965          0.000000
H              0.799571         -0.580965          0.000000
O             -2.108463         -1.501831          0.000000
H             -2.867079         -0.877324          0.000000
H             -2.453190         -2.421977          0.000000

