%NProcShared=4 
%Mem=4GB  
%Chk=H2O_H2O_4475.chk 

#p CCSD(T)/CEP-31G 

H2O_H2O_4475

0 1
O             -0.000000         -0.009833          0.000000
H             -0.799571         -0.580965          0.000000
H              0.799571         -0.580965          0.000000
O             -4.565758         -3.271143          0.000000
H             -5.365329         -3.842275          0.000000
H             -3.766186         -3.842275          0.000000

