%NProcShared=4 
%Mem=4GB  
%Chk=H2O_H2O_76.chk 

#p CCSD(T)/CEP-31G 

H2O_H2O_76

0 1
O             -0.000000         -0.009833          0.000000
H             -0.799571         -0.580965          0.000000
H              0.799571         -0.580965          0.000000
O             -1.710115         -1.230884          0.000000
H             -2.545328         -1.748498          0.000000
H             -0.949609         -1.853087          0.000000

