%NProcShared=4 
%Mem=4GB  
%Chk=H2O_H2O_4923.chk 

#p CCSD(T)/CEP-31G 

H2O_H2O_4923

0 1
O             -0.000000         -0.009833          0.000000
H             -0.799571         -0.580965          0.000000
H              0.799571         -0.580965          0.000000
O             -0.009812          6.800171          0.000000
H             -0.527427          7.635384          0.000000
H             -0.632016          6.039666          0.000000

