%NProcShared=4 
%Mem=4GB  
%Chk=H2O_H2O_3674.chk 

#p CCSD(T)/CEP-31G 

H2O_H2O_3674

0 1
O             -0.000000         -0.009833          0.000000
H             -0.799571         -0.580965          0.000000
H              0.799571         -0.580965          0.000000
O             -0.009833          5.469937          0.000000
H             -0.580965          6.269509          0.000000
H             -0.580965          4.670366          0.000000

