%NProcShared=4 
%Mem=4GB  
%Chk=H2O_H2O_1192.chk 

#p CCSD(T)/CEP-31G 

H2O_H2O_1192

0 1
O             -0.000000         -0.009833          0.000000
H             -0.799571         -0.580965          0.000000
H              0.799571         -0.580965          0.000000
O             -0.008819          2.841696          0.000000
H             -0.167410          3.811415          0.000000
H             -0.874693          2.377188          0.000000

