%NProcShared=4 
%Mem=4GB  
%Chk=H2O_H2O_4828.chk 

#p CCSD(T)/CEP-31G 

H2O_H2O_4828

0 1
O             -0.000000         -0.009833          0.000000
H             -0.799571         -0.580965          0.000000
H              0.799571         -0.580965          0.000000
O             -0.001918          6.729397          0.000000
H              0.670867          7.445543          0.000000
H             -0.897548          7.133566          0.000000

