%NProcShared=4 
%Mem=4GB  
%Chk=H2O_H2O_3597.chk 

#p CCSD(T)/CEP-31G 

H2O_H2O_3597

0 1
O             -0.000000         -0.009833          0.000000
H             -0.799571         -0.580965          0.000000
H              0.799571         -0.580965          0.000000
O             -0.009749          5.391445          0.000000
H             -0.471630          6.258724          0.000000
H             -0.680360          4.673262          0.000000

