%NProcShared=4 
%Mem=4GB  
%Chk=H2O_H2O_1289.chk 

#p CCSD(T)/CEP-31G 

H2O_H2O_1289

0 1
O             -0.000000         -0.009833          0.000000
H             -0.799571         -0.580965          0.000000
H              0.799571         -0.580965          0.000000
O             -0.007801          2.949701          0.000000
H              0.025838          3.931726          0.000000
H             -0.947659          2.663041          0.000000

