%NProcShared=4 
%Mem=4GB  
%Chk=H2O_H2O_3795.chk 

#p CCSD(T)/CEP-31G 

H2O_H2O_3795

0 1
O             -0.000000         -0.009833          0.000000
H             -0.799571         -0.580965          0.000000
H              0.799571         -0.580965          0.000000
O             -0.009498          5.605441          0.000000
H             -0.354225          6.525588          0.000000
H             -0.768113          4.980934          0.000000

