%NProcShared=4 
%Mem=4GB  
%Chk=H2O_H2O_193.chk 

#p CCSD(T)/CEP-31G 

H2O_H2O_193

0 1
O             -0.000000         -0.009833          0.000000
H             -0.799571         -0.580965          0.000000
H              0.799571         -0.580965          0.000000
O             -0.009085          1.777437          0.000000
H             -0.230759          2.734708          0.000000
H             -0.842725          1.257293          0.000000

