%NProcShared=4 
%Mem=4GB  
%Chk=H2O_H2O_3987.chk 

#p CCSD(T)/CEP-31G 

H2O_H2O_3987

0 1
O             -0.000000         -0.009833          0.000000
H             -0.799571         -0.580965          0.000000
H              0.799571         -0.580965          0.000000
O             -0.006953          5.822584          0.000000
H              0.154578          6.791818          0.000000
H             -0.976187          5.661053          0.000000

