%NProcShared=4 
%Mem=4GB  
%Chk=H2O_H2O_606.chk 

#p CCSD(T)/CEP-31G 

H2O_H2O_606

0 1
O             -0.000000         -0.009833          0.000000
H             -0.799571         -0.580965          0.000000
H              0.799571         -0.580965          0.000000
O             -0.003763          2.234820          0.000000
H              0.516382          3.068460          0.000000
H             -0.961033          2.456494          0.000000

