%NProcShared=4 
%Mem=4GB  
%Chk=H2O_H2O_1541.chk 

#p CCSD(T)/CEP-31G 

H2O_H2O_1541

0 1
O             -0.000000         -0.009833          0.000000
H             -0.799571         -0.580965          0.000000
H              0.799571         -0.580965          0.000000
O             -0.008516          3.214549          0.000000
H             -0.103345          4.192564          0.000000
H             -0.902916          2.807666          0.000000

