%NProcShared=4 
%Mem=4GB  
%Chk=H2O_H2O_1751.chk 

#p CCSD(T)/CEP-31G 

H2O_H2O_1751

0 1
O             -0.000000         -0.009833          0.000000
H             -0.799571         -0.580965          0.000000
H              0.799571         -0.580965          0.000000
O             -0.000643          3.458771          0.000000
H              0.759863          4.080975          0.000000
H             -0.835856          3.976386          0.000000

