%NProcShared=4 
%Mem=4GB  
%Chk=H2O_H2O_3439.chk 

#p CCSD(T)/CEP-31G 

H2O_H2O_3439

0 1
O             -0.000000         -0.009833          0.000000
H             -0.799571         -0.580965          0.000000
H              0.799571         -0.580965          0.000000
O             -0.007801          5.236597          0.000000
H              0.025838          6.218623          0.000000
H             -0.947659          4.949938          0.000000

