%NProcShared=4 
%Mem=4GB  
%Chk=H2O_H2O_1893.chk 

#p CCSD(T)/CEP-31G 

H2O_H2O_1893

0 1
O             -0.000000         -0.009833          0.000000
H             -0.799571         -0.580965          0.000000
H              0.799571         -0.580965          0.000000
O             -0.009085          3.585681          0.000000
H             -0.230759          4.542951          0.000000
H             -0.842725          3.065536          0.000000

