%NProcShared=4 
%Mem=4GB  
%Chk=H2O_H2O_3160.chk 

#p CCSD(T)/CEP-31G 

H2O_H2O_3160

0 1
O             -0.000000         -0.009833          0.000000
H             -0.799571         -0.580965          0.000000
H              0.799571         -0.580965          0.000000
O             -0.005986          4.945902          0.000000
H              0.280674          5.885760          0.000000
H             -0.988012          4.912263          0.000000

