%NProcShared=4 
%Mem=4GB  
%Chk=H2O_H2O_2947.chk 

#p CCSD(T)/CEP-31G 

H2O_H2O_2947

0 1
O             -0.000000         -0.009833          0.000000
H             -0.799571         -0.580965          0.000000
H              0.799571         -0.580965          0.000000
O             -0.009749          4.700058          0.000000
H             -0.471630          5.567337          0.000000
H             -0.680360          3.981875          0.000000

