%NProcShared=4 
%Mem=4GB  
%Chk=H2O_H2O_2580.chk 

#p CCSD(T)/CEP-31G 

H2O_H2O_2580

0 1
O             -0.000000         -0.009833          0.000000
H             -0.799571         -0.580965          0.000000
H              0.799571         -0.580965          0.000000
O             -0.003161          4.335800          0.000000
H              0.570393          5.133636          0.000000
H             -0.943883          4.619609          0.000000

