%NProcShared=4 
%Mem=4GB  
%Chk=H2O_H2O_1403.chk 

#p CCSD(T)/CEP-31G 

H2O_H2O_1403

0 1
O             -0.000000         -0.009833          0.000000
H             -0.799571         -0.580965          0.000000
H              0.799571         -0.580965          0.000000
O             -0.001918          3.086318          0.000000
H              0.670867          3.802464          0.000000
H             -0.897548          3.490487          0.000000

