%NProcShared=4 
%Mem=4GB  
%Chk=H2O_H2O_4058.chk 

#p CCSD(T)/CEP-31G 

H2O_H2O_4058

0 1
O             -0.000000         -0.009833          0.000000
H             -0.799571         -0.580965          0.000000
H              0.799571         -0.580965          0.000000
O             -0.004917          5.903922          0.000000
H              0.401967          6.798323          0.000000
H             -0.982932          5.998751          0.000000

