%NProcShared=4 
%Mem=4GB  
%Chk=H2O_H2O_4508.chk 

#p CCSD(T)/CEP-31G 

H2O_H2O_4508

0 1
O             -0.000000         -0.009833          0.000000
H             -0.799571         -0.580965          0.000000
H              0.799571         -0.580965          0.000000
O             -0.004917          6.382575          0.000000
H              0.401967          7.276975          0.000000
H             -0.982932          6.477404          0.000000

