%NProcShared=4 
%Mem=4GB  
%Chk=H2O_H2O_2004.chk 

#p CCSD(T)/CEP-31G 

H2O_H2O_2004

0 1
O             -0.000000         -0.009833          0.000000
H             -0.799571         -0.580965          0.000000
H              0.799571         -0.580965          0.000000
O             -0.002545          3.724375          0.000000
H              0.621962          4.482991          0.000000
H             -0.922692          4.069102          0.000000

