%NProcShared=4 
%Mem=4GB  
%Chk=H2O_H2O_1145.chk 

#p CCSD(T)/CEP-31G 

H2O_H2O_1145

0 1
O             -0.000000         -0.009833          0.000000
H             -0.799571         -0.580965          0.000000
H              0.799571         -0.580965          0.000000
O             -0.009498          2.786709          0.000000
H             -0.354225          3.706855          0.000000
H             -0.768113          2.162202          0.000000

