%NProcShared=4 
%Mem=4GB  
%Chk=H2O_H2O_3529.chk 

#p CCSD(T)/CEP-31G 

H2O_H2O_3529

0 1
O             -0.000000         -0.009833          0.000000
H             -0.799571         -0.580965          0.000000
H              0.799571         -0.580965          0.000000
O             -0.002545          5.346476          0.000000
H              0.621962          6.105092          0.000000
H             -0.922692          5.691203          0.000000

