%NProcShared=4 
%Mem=4GB  
%Chk=H2O_H2O_999.chk 

#p CCSD(T)/CEP-31G 

H2O_H2O_999

0 1
O             -0.000000         -0.009833          0.000000
H             -0.799571         -0.580965          0.000000
H              0.799571         -0.580965          0.000000
O             -0.009833          2.624613          0.000000
H             -0.580965          3.424184          0.000000
H             -0.580965          1.825041          0.000000

