%NProcShared=4 
%Mem=4GB  
%Chk=H2O_H2O_2077.chk 

#p CCSD(T)/CEP-31G 

H2O_H2O_2077

0 1
O             -0.000000         -0.009833          0.000000
H             -0.799571         -0.580965          0.000000
H              0.799571         -0.580965          0.000000
O             -0.001283          3.804402          0.000000
H              0.716900          4.475013          0.000000
H             -0.868562          4.266282          0.000000

