%NProcShared=4 
%Mem=4GB  
%Chk=H2O_H2O_2281.chk 

#p CCSD(T)/CEP-31G 

H2O_H2O_2281

0 1
O             -0.000000         -0.009833          0.000000
H             -0.799571         -0.580965          0.000000
H              0.799571         -0.580965          0.000000
O             -0.003763          4.016472          0.000000
H              0.516382          4.850112          0.000000
H             -0.961033          4.238146          0.000000

