%NProcShared=4 
%Mem=4GB  
%Chk=H2O_H2O_1464.chk 

#p CCSD(T)/CEP-31G 

H2O_H2O_1464

0 1
O             -0.000000         -0.009833          0.000000
H             -0.799571         -0.580965          0.000000
H              0.799571         -0.580965          0.000000
O             -0.007801          3.135843          0.000000
H              0.025838          4.117869          0.000000
H             -0.947659          2.849184          0.000000

