%NProcShared=4 
%Mem=4GB  
%Chk=H2O_H2O_1983.chk 

#p CCSD(T)/CEP-31G 

H2O_H2O_1983

0 1
O             -0.000000         -0.009833          0.000000
H             -0.799571         -0.580965          0.000000
H              0.799571         -0.580965          0.000000
O             -0.004917          3.696801          0.000000
H              0.401967          4.591202          0.000000
H             -0.982932          3.791630          0.000000

