%NProcShared=4 
%Mem=4GB  
%Chk=H2O_H2O_196.chk 

#p CCSD(T)/CEP-31G 

H2O_H2O_196

0 1
O             -0.000000         -0.009833          0.000000
H             -0.799571         -0.580965          0.000000
H              0.799571         -0.580965          0.000000
O             -0.009644          1.775593          0.000000
H             -0.413813          2.671223          0.000000
H             -0.725791          1.102807          0.000000

