%NProcShared=4 
%Mem=4GB  
%Chk=H2O_H2O_4277.chk 

#p CCSD(T)/CEP-31G 

H2O_H2O_4277

0 1
O             -0.000000         -0.009833          0.000000
H             -0.799571         -0.580965          0.000000
H              0.799571         -0.580965          0.000000
O             -0.001283          6.144482          0.000000
H              0.716900          6.815093          0.000000
H             -0.868562          6.606363          0.000000

