%NProcShared=4 
%Mem=4GB  
%Chk=H2O_H2O_4107.chk 

#p CCSD(T)/CEP-31G 

H2O_H2O_4107

0 1
O             -0.000000         -0.009833          0.000000
H             -0.799571         -0.580965          0.000000
H              0.799571         -0.580965          0.000000
O             -0.004349          5.957409          0.000000
H              0.460159          6.823283          0.000000
H             -0.974068          6.116000          0.000000

