%NProcShared=4 
%Mem=4GB  
%Chk=H2O_H2O_1550.chk 

#p CCSD(T)/CEP-31G 

H2O_H2O_1550

0 1
O             -0.000000         -0.009833          0.000000
H             -0.799571         -0.580965          0.000000
H              0.799571         -0.580965          0.000000
O             -0.000000          3.246058          0.000000
H              0.799571          3.817190          0.000000
H             -0.799571          3.817189          0.000000

