%NProcShared=4 
%Mem=4GB  
%Chk=H2O_H2O_3063.chk 

#p CCSD(T)/CEP-31G 

H2O_H2O_3063

0 1
O             -0.000000         -0.009833          0.000000
H             -0.799571         -0.580965          0.000000
H              0.799571         -0.580965          0.000000
O             -0.007393          4.838217          0.000000
H              0.090401          5.815940          0.000000
H             -0.963987          4.613641          0.000000

