%NProcShared=4 
%Mem=4GB  
%Chk=H2O_H2O_4064.chk 

#p CCSD(T)/CEP-31G 

H2O_H2O_4064

0 1
O             -0.000000         -0.009833          0.000000
H             -0.799571         -0.580965          0.000000
H              0.799571         -0.580965          0.000000
O             -0.007801          5.901392          0.000000
H              0.025838          6.883418          0.000000
H             -0.947659          5.614733          0.000000

