%NProcShared=4 
%Mem=4GB  
%Chk=H2O_H2O_124.chk 

#p CCSD(T)/CEP-31G 

H2O_H2O_124

0 1
O             -0.000000         -0.009833          0.000000
H             -0.799571         -0.580965          0.000000
H              0.799571         -0.580965          0.000000
O             -0.009833          1.693899          0.000000
H             -0.580965          2.493470          0.000000
H             -0.580965          0.894327          0.000000

