%NProcShared=4 
%Mem=4GB  
%Chk=H2O_H2O_1907.chk 

#p CCSD(T)/CEP-31G 

H2O_H2O_1907

0 1
O             -0.000000         -0.009833          0.000000
H             -0.799571         -0.580965          0.000000
H              0.799571         -0.580965          0.000000
O             -0.004349          3.617329          0.000000
H              0.460159          4.483203          0.000000
H             -0.974068          3.775920          0.000000

