%NProcShared=4 
%Mem=4GB  
%Chk=H2O_H2O_1730.chk 

#p CCSD(T)/CEP-31G 

H2O_H2O_1730

0 1
O             -0.000000         -0.009833          0.000000
H             -0.799571         -0.580965          0.000000
H              0.799571         -0.580965          0.000000
O             -0.003161          3.431678          0.000000
H              0.570393          4.229514          0.000000
H             -0.943883          3.715487          0.000000

