%NProcShared=4 
%Mem=4GB  
%Chk=H2O_H2O_2393.chk 

#p CCSD(T)/CEP-31G 

H2O_H2O_2393

0 1
O             -0.000000         -0.009833          0.000000
H             -0.799571         -0.580965          0.000000
H              0.799571         -0.580965          0.000000
O             -0.009085          4.117518          0.000000
H             -0.230759          5.074788          0.000000
H             -0.842725          3.597373          0.000000

