%NProcShared=4 
%Mem=4GB  
%Chk=H2O_H2O_434.chk 

#p CCSD(T)/CEP-31G 

H2O_H2O_434

0 1
O             -0.000000         -0.009833          0.000000
H             -0.799571         -0.580965          0.000000
H              0.799571         -0.580965          0.000000
O             -0.005463          2.047769          0.000000
H              0.342052          2.966866          0.000000
H             -0.987586          2.078429          0.000000

