%NProcShared=4 
%Mem=4GB  
%Chk=H2O_H2O_1548.chk 

#p CCSD(T)/CEP-31G 

H2O_H2O_1548

0 1
O             -0.000000         -0.009833          0.000000
H             -0.799571         -0.580965          0.000000
H              0.799571         -0.580965          0.000000
O             -0.009812          3.210276          0.000000
H             -0.527427          4.045489          0.000000
H             -0.632016          2.449770          0.000000

