%NProcShared=4 
%Mem=4GB  
%Chk=H2O_H2O_4671.chk 

#p CCSD(T)/CEP-31G 

H2O_H2O_4671

0 1
O             -0.000000         -0.009833          0.000000
H             -0.799571         -0.580965          0.000000
H              0.799571         -0.580965          0.000000
O             -0.009644          6.535529          0.000000
H             -0.413813          7.431159          0.000000
H             -0.725791          5.862743          0.000000

