%NProcShared=4 
%Mem=4GB  
%Chk=H2O_H2O_3601.chk 

#p CCSD(T)/CEP-31G 

H2O_H2O_3601

0 1
O             -0.000000         -0.009833          0.000000
H             -0.799571         -0.580965          0.000000
H              0.799571         -0.580965          0.000000
O             -0.000643          5.426566          0.000000
H              0.759863          6.048770          0.000000
H             -0.835856          5.944181          0.000000

