%NProcShared=4 
%Mem=4GB  
%Chk=H2O_H2O_1690.chk 

#p CCSD(T)/CEP-31G 

H2O_H2O_1690

0 1
O             -0.000000         -0.009833          0.000000
H             -0.799571         -0.580965          0.000000
H              0.799571         -0.580965          0.000000
O             -0.008176          3.374647          0.000000
H             -0.038837          4.356770          0.000000
H             -0.927273          3.027131          0.000000

