%NProcShared=4 
%Mem=4GB  
%Chk=H2O_H2O_481.chk 

#p CCSD(T)/CEP-31G 

H2O_H2O_481

0 1
O             -0.000000         -0.009833          0.000000
H             -0.799571         -0.580965          0.000000
H              0.799571         -0.580965          0.000000
O             -0.003763          2.101861          0.000000
H              0.516382          2.935501          0.000000
H             -0.961033          2.323535          0.000000

