%NProcShared=4 
%Mem=4GB  
%Chk=H2O_H2O_4906.chk 

#p CCSD(T)/CEP-31G 

H2O_H2O_4906

0 1
O             -0.000000         -0.009833          0.000000
H             -0.799571         -0.580965          0.000000
H              0.799571         -0.580965          0.000000
O             -0.003763          6.808613          0.000000
H              0.516382          7.642253          0.000000
H             -0.961033          7.030287          0.000000

