%NProcShared=4 
%Mem=4GB  
%Chk=H2O_H2O_4958.chk 

#p CCSD(T)/CEP-31G 

H2O_H2O_4958

0 1
O             -0.000000         -0.009833          0.000000
H             -0.799571         -0.580965          0.000000
H              0.799571         -0.580965          0.000000
O             -0.004917          6.861228          0.000000
H              0.401967          7.755628          0.000000
H             -0.982932          6.956057          0.000000

