%NProcShared=4 
%Mem=4GB  
%Chk=H2O_H2O_488.chk 

#p CCSD(T)/cc-pVTZ 

H2O_H2O_488

0 1
O             -0.000000         -0.009833          0.000000
H             -0.799571         -0.580965          0.000000
H              0.799571         -0.580965          0.000000
O             -1.976527         -1.413031          0.000000
H             -2.933121         -1.188455          0.000000
H             -1.878733         -2.390754          0.000000

