%NProcShared=4 
%Mem=4GB  
%Chk=H2O_H2O_3204.chk 

#p CCSD(T)/cc-pVTZ 

H2O_H2O_3204

0 1
O             -0.000000         -0.009833          0.000000
H             -0.799571         -0.580965          0.000000
H              0.799571         -0.580965          0.000000
O             -3.740629         -2.679603          0.000000
H             -4.660775         -3.024330          0.000000
H             -3.116122         -3.438218          0.000000

