%NProcShared=4 
%Mem=4GB  
%Chk=H2O_H2O_1681.chk 

#p CCSD(T)/cc-pVTZ 

H2O_H2O_1681

0 1
O             -0.000000         -0.009833          0.000000
H             -0.799571         -0.580965          0.000000
H              0.799571         -0.580965          0.000000
O             -2.751884         -1.972061          0.000000
H             -3.709155         -2.193736          0.000000
H             -2.231739         -2.805701          0.000000

