%NProcShared=4 
%Mem=4GB  
%Chk=H2O_H2O_2163.chk 

#p CCSD(T)/cc-pVTZ 

H2O_H2O_2163

0 1
O             -0.000000         -0.009833          0.000000
H             -0.799571         -0.580965          0.000000
H              0.799571         -0.580965          0.000000
O             -3.063863         -2.189713          0.000000
H             -4.020457         -1.965137          0.000000
H             -2.966069         -3.167436          0.000000

