%NProcShared=4 
%Mem=4GB  
%Chk=H2O_H2O_573.chk 

#p CCSD(T)/cc-pVTZ 

H2O_H2O_573

0 1
O             -0.000000         -0.009833          0.000000
H             -0.799571         -0.580965          0.000000
H              0.799571         -0.580965          0.000000
O             -2.027633         -1.441968          0.000000
H             -2.649836         -0.681462          0.000000
H             -2.545248         -2.277181          0.000000

