%NProcShared=4 
%Mem=4GB  
%Chk=H2O_H2O_2069.chk 

#p CCSD(T)/cc-pVTZ 

H2O_H2O_2069

0 1
O             -0.000000         -0.009833          0.000000
H             -0.799571         -0.580965          0.000000
H              0.799571         -0.580965          0.000000
O             -3.000866         -2.140021          0.000000
H             -3.798702         -1.566467          0.000000
H             -3.284674         -3.080744          0.000000

