%NProcShared=4 
%Mem=4GB  
%Chk=H2O_H2O_2480.chk 

#p CCSD(T)/cc-pVTZ 

H2O_H2O_2480

0 1
O             -0.000000         -0.009833          0.000000
H             -0.799571         -0.580965          0.000000
H              0.799571         -0.580965          0.000000
O             -3.270607         -2.343240          0.000000
H             -4.211329         -2.627049          0.000000
H             -2.697053         -3.141076          0.000000

