%NProcShared=4 
%Mem=4GB  
%Chk=H2O_H2O_3819.chk 

#p CCSD(T)/cc-pVTZ 

H2O_H2O_3819

0 1
O             -0.000000         -0.009833          0.000000
H             -0.799571         -0.580965          0.000000
H              0.799571         -0.580965          0.000000
O             -4.136889         -2.951480          0.000000
H             -4.934725         -2.377926          0.000000
H             -4.420697         -3.892202          0.000000

