%NProcShared=4 
%Mem=4GB  
%Chk=H2O_H2O_3637.chk 

#p CCSD(T)/cc-pVTZ 

H2O_H2O_3637

0 1
O             -0.000000         -0.009833          0.000000
H             -0.799571         -0.580965          0.000000
H              0.799571         -0.580965          0.000000
O             -4.020928         -2.874126          0.000000
H             -4.990162         -2.712595          0.000000
H             -3.859397         -3.843360          0.000000

