%NProcShared=4 
%Mem=4GB  
%Chk=H2O_H2O_4030.chk 

#p CCSD(T)/cc-pVTZ 

H2O_H2O_4030

0 1
O             -0.000000         -0.009833          0.000000
H             -0.799571         -0.580965          0.000000
H              0.799571         -0.580965          0.000000
O             -4.276799         -3.061961          0.000000
H             -5.217521         -3.345769          0.000000
H             -3.703245         -3.859797          0.000000

