%NProcShared=4 
%Mem=4GB  
%Chk=H2O_H2O_2369.chk 

#p CCSD(T)/cc-pVTZ 

H2O_H2O_2369

0 1
O             -0.000000         -0.009833          0.000000
H             -0.799571         -0.580965          0.000000
H              0.799571         -0.580965          0.000000
O             -3.195613         -2.279129          0.000000
H             -3.993449         -1.705575          0.000000
H             -3.479421         -3.219851          0.000000

