%NProcShared=4 
%Mem=4GB  
%Chk=H2O_H2O_4138.chk 

#p CCSD(T)/cc-pVTZ 

H2O_H2O_4138

0 1
O             -0.000000         -0.009833          0.000000
H             -0.799571         -0.580965          0.000000
H              0.799571         -0.580965          0.000000
O             -4.345946         -3.105502          0.000000
H             -5.302540         -2.880926          0.000000
H             -4.248152         -4.083225          0.000000

