%NProcShared=4 
%Mem=4GB  
%Chk=H2O_H2O_4755.chk 

#p CCSD(T)/cc-pVTZ 

H2O_H2O_4755

0 1
O             -0.000000         -0.009833          0.000000
H             -0.799571         -0.580965          0.000000
H              0.799571         -0.580965          0.000000
O             -4.747436         -3.398136          0.000000
H             -5.688159         -3.681945          0.000000
H             -4.173883         -4.195972          0.000000

