%NProcShared=4 
%Mem=4GB  
%Chk=H2O_H2O_1023.chk 

#p CCSD(T)/cc-pVTZ 

H2O_H2O_1023

0 1
O             -0.000000         -0.009833          0.000000
H             -0.799571         -0.580965          0.000000
H              0.799571         -0.580965          0.000000
O             -2.319753         -1.650629          0.000000
H             -2.941957         -0.890123          0.000000
H             -2.837368         -2.485842          0.000000

