%NProcShared=4 
%Mem=4GB  
%Chk=H2O_H2O_2434.chk 

#p CCSD(T)/cc-pVTZ 

H2O_H2O_2434

0 1
O             -0.000000         -0.009833          0.000000
H             -0.799571         -0.580965          0.000000
H              0.799571         -0.580965          0.000000
O             -3.240451         -2.318921          0.000000
H             -4.222574         -2.349581          0.000000
H             -2.892936         -3.238018          0.000000

