%NProcShared=4 
%Mem=4GB  
%Chk=H2O_H2O_3515.chk 

#p CCSD(T)/cc-pVTZ 

H2O_H2O_3515

0 1
O             -0.000000         -0.009833          0.000000
H             -0.799571         -0.580965          0.000000
H              0.799571         -0.580965          0.000000
O             -3.941007         -2.814675          0.000000
H             -4.860104         -2.467159          0.000000
H             -3.971668         -3.796798          0.000000

