%NProcShared=4 
%Mem=4GB  
%Chk=H2O_H2O_2261.chk 

#p CCSD(T)/cc-pVTZ 

H2O_H2O_2261

0 1
O             -0.000000         -0.009833          0.000000
H             -0.799571         -0.580965          0.000000
H              0.799571         -0.580965          0.000000
O             -3.127869         -2.236992          0.000000
H             -4.105592         -2.139197          0.000000
H             -2.903293         -3.193585          0.000000

