%NProcShared=4 
%Mem=4GB  
%Chk=H2O_H2O_4265.chk 

#p CCSD(T)/cc-pVTZ 

H2O_H2O_4265

0 1
O             -0.000000         -0.009833          0.000000
H             -0.799571         -0.580965          0.000000
H              0.799571         -0.580965          0.000000
O             -0.008176          6.113604          0.000000
H             -0.038837          7.095727          0.000000
H             -0.927273          5.766089          0.000000

