%NProcShared=4 
%Mem=4GB  
%Chk=H2O_H2O_319.chk 

#p CCSD(T)/cc-pVTZ 

H2O_H2O_319

0 1
O             -0.000000         -0.009833          0.000000
H             -0.799571         -0.580965          0.000000
H              0.799571         -0.580965          0.000000
O             -0.009311          1.909794          0.000000
H             -0.293120          2.850517          0.000000
H             -0.807147          1.336240          0.000000

