%NProcShared=4 
%Mem=4GB  
%Chk=H2O_H2O_2466.chk 

#p CCSD(T)/cc-pVTZ 

H2O_H2O_2466

0 1
O             -0.000000         -0.009833          0.000000
H             -0.799571         -0.580965          0.000000
H              0.799571         -0.580965          0.000000
O             -0.008516          4.198446          0.000000
H             -0.103345          5.176462          0.000000
H             -0.902916          3.791563          0.000000

