%NProcShared=4 
%Mem=4GB  
%Chk=H2O_H2O_2690.chk 

#p CCSD(T)/cc-pVTZ 

H2O_H2O_2690

0 1
O             -0.000000         -0.009833          0.000000
H             -0.799571         -0.580965          0.000000
H              0.799571         -0.580965          0.000000
O             -0.008176          4.438319          0.000000
H             -0.038837          5.420443          0.000000
H             -0.927273          4.090804          0.000000

