%NProcShared=4 
%Mem=4GB  
%Chk=H2O_H2O_4176.chk 

#p CCSD(T)/cc-pVTZ 

H2O_H2O_4176

0 1
O             -0.000000         -0.009833          0.000000
H             -0.799571         -0.580965          0.000000
H              0.799571         -0.580965          0.000000
O             -0.000643          6.038178          0.000000
H              0.759863          6.660381          0.000000
H             -0.835856          6.555793          0.000000

