%NProcShared=4 
%Mem=4GB  
%Chk=H2O_H2O_4127.chk 

#p CCSD(T)/cc-pVTZ 

H2O_H2O_4127

0 1
O             -0.000000         -0.009833          0.000000
H             -0.799571         -0.580965          0.000000
H              0.799571         -0.580965          0.000000
O             -0.001283          5.984931          0.000000
H              0.716900          6.655542          0.000000
H             -0.868562          6.446812          0.000000

