%NProcShared=4 
%Mem=4GB  
%Chk=H2O_H2O_1904.chk 

#p CCSD(T)/cc-pVTZ 

H2O_H2O_1904

0 1
O             -0.000000         -0.009833          0.000000
H             -0.799571         -0.580965          0.000000
H              0.799571         -0.580965          0.000000
O             -0.002545          3.618008          0.000000
H              0.621962          4.376624          0.000000
H             -0.922692          3.962735          0.000000

