%NProcShared=4 
%Mem=4GB  
%Chk=H2O_H2O_4173.chk 

#p CCSD(T)/cc-pVTZ 

H2O_H2O_4173

0 1
O             -0.000000         -0.009833          0.000000
H             -0.799571         -0.580965          0.000000
H              0.799571         -0.580965          0.000000
O             -0.009812          6.002417          0.000000
H             -0.527427          6.837630          0.000000
H             -0.632016          5.241911          0.000000

